6 44 91 54 23 80 57 20 32 17 82 7 42 9 2 46 46 7 7 99 11 92 69 9 41 39 92 25 77 75 82 3 12 96 2 80 5 48 31 32 7 35 71 29 83 93 35 42 57 26 74 59 77 89 34 14 85 88 38 60 96 71 37 46 29 82 64 71 65 24 77 49 100 25 86 77 87 58 14 57 59 40 15 49 98 98 5 98 80 21 60 78 15 77 61 23 9 18 36 87 